
630.0
630.0
780.0
630.0
630.0
630.0
630.0
1140.0
630.0
630.0
630.0
630.0
810.0
690.0
930.0
630.0
810.0
630.0
630.0
630.0
1020.0
630.0
630.0
750.0
630.0
630.0
840.0
810.0
630.0
810.0
630.0
630.0
930.0
630.0
630.0
630.0
630.0
630.0
630.0
630.0
630.0
630.0
630.0
630.0
630.0
630.0
810.0
630.0
630.0
630.0